Li8 Ru4 O12                             
   1.00000000000000     
    -2.4266779999999999   -4.4490530000000001    0.8336740000000000
    -6.7794509999999999    4.1463390000000002    2.3740150000000000
    -0.0811580000000000    0.0378510000000000   -5.0993279999999999
   Li   Ru   O 
     8     4    12
Direct
  0.9999850000000023  0.0000029999999995  0.4999889999999994
  0.5000179999999972  0.4999960000000030  0.5000119999999981
  0.2499850000000023  0.2499880000000019  0.9999820000000028
  0.7500119999999981  0.7500089999999986  0.0000199999999992
  0.4801289999999980  0.1652559999999994  0.4928979999999967
  0.9801379999999966  0.6652520000000024  0.4929109999999994
  0.0198770000000010  0.3347339999999974  0.5070959999999971
  0.5198759999999965  0.8347440000000006  0.5071030000000007
  0.2502730000000000  0.6012979999999999  0.0015939999999972
  0.7497270000000000  0.3987690000000015  0.9984139999999968
  0.7502700000000004  0.1012169999999983  0.0015700000000010
  0.2497299999999996  0.8987100000000012  0.9984120000000019
  0.3813010000000006  0.3866799999999984  0.7763410000000022
  0.8813189999999977  0.8867419999999981  0.7763860000000022
  0.1186119999999988  0.1133170000000021  0.2236150000000023
  0.6186509999999998  0.6132840000000002  0.2236199999999968
  0.1150420000000025  0.4604810000000015  0.2216579999999979
  0.6150379999999984  0.9605450000000033  0.2216719999999981
  0.3850290000000030  0.0395299999999992  0.7783670000000029
  0.8849850000000004  0.5394750000000030  0.7783439999999970
  0.8729689999999977  0.2051510000000007  0.7358660000000015
  0.3729689999999977  0.7052160000000001  0.7359429999999989
  0.6270230000000012  0.2947720000000018  0.2641029999999986
  0.1270409999999984  0.7948290000000000  0.2640829999999994
 
  0.00000000E+00  0.00000000E+00  0.00000000E+00
  0.00000000E+00  0.00000000E+00  0.00000000E+00
  0.00000000E+00  0.00000000E+00  0.00000000E+00
  0.00000000E+00  0.00000000E+00  0.00000000E+00
  0.00000000E+00  0.00000000E+00  0.00000000E+00
  0.00000000E+00  0.00000000E+00  0.00000000E+00
  0.00000000E+00  0.00000000E+00  0.00000000E+00
  0.00000000E+00  0.00000000E+00  0.00000000E+00
  0.00000000E+00  0.00000000E+00  0.00000000E+00
  0.00000000E+00  0.00000000E+00  0.00000000E+00
  0.00000000E+00  0.00000000E+00  0.00000000E+00
  0.00000000E+00  0.00000000E+00  0.00000000E+00
  0.00000000E+00  0.00000000E+00  0.00000000E+00
  0.00000000E+00  0.00000000E+00  0.00000000E+00
  0.00000000E+00  0.00000000E+00  0.00000000E+00
  0.00000000E+00  0.00000000E+00  0.00000000E+00
  0.00000000E+00  0.00000000E+00  0.00000000E+00
  0.00000000E+00  0.00000000E+00  0.00000000E+00
  0.00000000E+00  0.00000000E+00  0.00000000E+00
  0.00000000E+00  0.00000000E+00  0.00000000E+00
  0.00000000E+00  0.00000000E+00  0.00000000E+00
  0.00000000E+00  0.00000000E+00  0.00000000E+00
  0.00000000E+00  0.00000000E+00  0.00000000E+00
  0.00000000E+00  0.00000000E+00  0.00000000E+00
