Li4 W4 O8                               
   1.00000000000000     
     0.0009600000000000   -5.3199449999999997   -0.0132760000000000
     1.4933490000000000    0.8981240000000000    5.1222640000000004
    -5.9768670000000004    0.0010880000000000    0.0008440000000000
   Li   W    O 
     4     4     8
Direct
  0.7500000000000000  0.5000000000000000  0.1250000000000000
  0.7500000000000000  0.5000000000000000  0.6250000000000000
  0.2499990000000025  0.4999979999999979  0.8750000000000000
  0.2500009999999975  0.5000020000000021  0.3750000000000000
  0.5000440000000026  0.9999609999999990  0.7685730000000035
  0.9999559999999974  0.0000399999999985  0.4814239999999970
  0.5000420000000005  0.9999600000000015  0.2685600000000008
  0.9999579999999995  0.0000410000000031  0.9814420000000013
  0.8696369999999973  0.2505719999999982  0.2950310000000016
  0.8696359999999999  0.2505620000000022  0.7950310000000016
  0.3694449999999989  0.2503990000000016  0.0800869999999989
  0.3694520000000026  0.2503949999999975  0.5800839999999994
  0.6303660000000022  0.7494259999999997  0.9549680000000009
  0.6303640000000001  0.7494379999999978  0.4549710000000005
  0.1305479999999974  0.7496039999999979  0.6699169999999981
  0.1305529999999990  0.7496020000000030  0.1699119999999965
 
  0.00000000E+00  0.00000000E+00  0.00000000E+00
  0.00000000E+00  0.00000000E+00  0.00000000E+00
  0.00000000E+00  0.00000000E+00  0.00000000E+00
  0.00000000E+00  0.00000000E+00  0.00000000E+00
  0.00000000E+00  0.00000000E+00  0.00000000E+00
  0.00000000E+00  0.00000000E+00  0.00000000E+00
  0.00000000E+00  0.00000000E+00  0.00000000E+00
  0.00000000E+00  0.00000000E+00  0.00000000E+00
  0.00000000E+00  0.00000000E+00  0.00000000E+00
  0.00000000E+00  0.00000000E+00  0.00000000E+00
  0.00000000E+00  0.00000000E+00  0.00000000E+00
  0.00000000E+00  0.00000000E+00  0.00000000E+00
  0.00000000E+00  0.00000000E+00  0.00000000E+00
  0.00000000E+00  0.00000000E+00  0.00000000E+00
  0.00000000E+00  0.00000000E+00  0.00000000E+00
  0.00000000E+00  0.00000000E+00  0.00000000E+00
