Li4 Ru4 O8                              
   1.00000000000000     
     1.5420350000000000   -2.6706650000000001   -0.0000460000000000
     1.4165760000000001    0.8178360000000000    5.0292810000000001
    -6.5873330000000001   -3.8026819999999999    4.8498570000000001
   Li   Ru   O 
     4     4     8
Direct
  0.4999279999999970  0.4999070000000003  0.9999099999999999
  0.9999460000000013  0.7499370000000027  0.7500700000000009
  0.0000479999999996  0.2501379999999997  0.2501249999999970
  0.5000410000000031  0.0000259999999983  0.4999290000000016
  0.4993800000000022  0.2497990000000030  0.7499309999999966
  0.0004940000000033  0.5001710000000017  0.5000550000000032
  0.9995079999999987  0.0001559999999969  0.0000500000000017
  0.5006300000000010  0.7498349999999974  0.2499540000000025
  0.4996620000000007  0.1272990000000007  0.1170740000000023
  0.9994879999999995  0.3768209999999996  0.8671360000000021
  0.0005590000000026  0.8769739999999970  0.3671739999999986
  0.5003809999999973  0.6272179999999992  0.6171440000000032
  0.4995120000000028  0.8729680000000002  0.8828079999999972
  0.9995249999999984  0.1228049999999996  0.6328669999999974
  0.0004459999999966  0.6228010000000026  0.1329419999999999
  0.5004520000000028  0.3731429999999989  0.3828290000000010
 
  0.00000000E+00  0.00000000E+00  0.00000000E+00
  0.00000000E+00  0.00000000E+00  0.00000000E+00
  0.00000000E+00  0.00000000E+00  0.00000000E+00
  0.00000000E+00  0.00000000E+00  0.00000000E+00
  0.00000000E+00  0.00000000E+00  0.00000000E+00
  0.00000000E+00  0.00000000E+00  0.00000000E+00
  0.00000000E+00  0.00000000E+00  0.00000000E+00
  0.00000000E+00  0.00000000E+00  0.00000000E+00
  0.00000000E+00  0.00000000E+00  0.00000000E+00
  0.00000000E+00  0.00000000E+00  0.00000000E+00
  0.00000000E+00  0.00000000E+00  0.00000000E+00
  0.00000000E+00  0.00000000E+00  0.00000000E+00
  0.00000000E+00  0.00000000E+00  0.00000000E+00
  0.00000000E+00  0.00000000E+00  0.00000000E+00
  0.00000000E+00  0.00000000E+00  0.00000000E+00
  0.00000000E+00  0.00000000E+00  0.00000000E+00
