Cu4 O2                                  
   1.00000000000000     
     4.2878127097999998    0.0000000000000000    0.0000000000000000
     0.0000000000000000    4.2878127097999998    0.0000000000000000
     0.0000000000000000    0.0000000000000000    4.2878127097999998
   Cu   O 
     4     2
Direct
  0.2500000000000000  0.2500000000000000  0.7499999719999977
  0.7499999719999977  0.7499999719999977  0.7499999719999977
  0.7499999719999977  0.2500000000000000  0.2500000000000000
  0.2500000000000000  0.7499999719999977  0.2500000000000000
  0.0000000000000000  0.0000000000000000  0.0000000000000000
  0.5000000000000000  0.5000000000000000  0.5000000000000000
 
  0.00000000E+00  0.00000000E+00  0.00000000E+00
  0.00000000E+00  0.00000000E+00  0.00000000E+00
  0.00000000E+00  0.00000000E+00  0.00000000E+00
  0.00000000E+00  0.00000000E+00  0.00000000E+00
  0.00000000E+00  0.00000000E+00  0.00000000E+00
  0.00000000E+00  0.00000000E+00  0.00000000E+00
