Li4 W2 O6                               
   1.00000000000000     
    -2.4444219999999999   -4.4595180000000001    0.8923980000000000
    -2.4557210000000000    4.4523099999999998    0.8228550000000000
    -0.0126000000000000    0.0400330000000000   -5.2416700000000001
   Li   W    O 
     4     2     6
Direct
  0.6557510000000022  0.3475370000000026  0.4913030000000020
  0.3442959999999999  0.6524440000000027  0.5087270000000004
  0.9997520000000009  0.9999290000000016  0.4999309999999966
  0.4999320000000012  0.4998009999999979  0.9998000000000005
  0.8480169999999987  0.1744100000000017  0.9997019999999992
  0.1519410000000008  0.8255740000000031  0.0001389999999972
  0.5761540000000025  0.9201199999999972  0.2231560000000030
  0.4241329999999977  0.0797150000000002  0.7775310000000033
  0.0724710000000002  0.4079089999999965  0.7532709999999980
  0.9278240000000011  0.5927450000000007  0.2468229999999991
  0.7593090000000018  0.7525130000000004  0.7489980000000003
  0.2404200000000003  0.2473030000000023  0.2506180000000029
 
  0.00000000E+00  0.00000000E+00  0.00000000E+00
  0.00000000E+00  0.00000000E+00  0.00000000E+00
  0.00000000E+00  0.00000000E+00  0.00000000E+00
  0.00000000E+00  0.00000000E+00  0.00000000E+00
  0.00000000E+00  0.00000000E+00  0.00000000E+00
  0.00000000E+00  0.00000000E+00  0.00000000E+00
  0.00000000E+00  0.00000000E+00  0.00000000E+00
  0.00000000E+00  0.00000000E+00  0.00000000E+00
  0.00000000E+00  0.00000000E+00  0.00000000E+00
  0.00000000E+00  0.00000000E+00  0.00000000E+00
  0.00000000E+00  0.00000000E+00  0.00000000E+00
  0.00000000E+00  0.00000000E+00  0.00000000E+00
